g3 1 1 0 # unnamed problem generated by COEK
 23 18 1 0 18 0 # vars, constraints, objectives, ranges, eqns, lcons
 14 1 # nonlinear constraints, objectives
 0 0 # network constraints: nonlinear, linear
 7 7 7 # nonlinear vars in constraints, objectives, both
 0 0 0 1 # linear network variables; functions; arith, flags
 0 0 0 0 0 # discrete variables: binary, integer, nonlinear (b,c,o)
 53 7 # nonzeros in Jacobian, gradients
 0 0 # max name lengths: constraints, variables
 0 0 0 0 0 # common exprs: b,c,o,c1,o1
C0
n0
C1
n0
C2
n0
C3
n0
C4
o2
n-15625
o41
v0
C5
o2
n-15625
o41
v1
C6
o2
n-93750
o41
v2
C7
o2
n-93750
o41
v3
C8
o2
n-93750
o41
v4
C9
o2
n-405000
o41
v5
C10
o2
n-405000
o41
v6
C11
o2
n-1250
o41
v0
C12
o2
n-1250
o41
v1
C13
o2
n-3750
o41
v2
C14
o2
n-3750
o41
v3
C15
o2
n-3750
o41
v4
C16
o2
n-9000
o41
v5
C17
o2
n-9000
o41
v6
O0 0
o2
n-1
o5
o54
7
o2
n1250
o46
v0
o2
n1250
o46
v1
o2
n3750
o46
v2
o2
n3750
o46
v3
o2
n3750
o46
v4
o2
n9000
o46
v5
o2
n9000
o46
v6
n2
x7
0 0.5
1 0.5
2 0.5
3 0.5
4 0.5
5 0.5
6 0.5
r
4 100000
4 1000
4 0
4 0
4 -10000
4 -10000
4 -40000
4 -40000
4 -40000
4 -129600
4 -129600
4 -800
4 -800
4 -1600
4 -1600
4 -1600
4 -2880
4 -2880
b
0 0 1.58
0 0 1.58
0 0 1.58
0 0 1.58
0 0 1.58
0 0 1.58
0 0 1.58
3
3
3
3
3
3
3
3
3
3
3
3
3
3
3
3
k22
2
4
6
8
10
12
14
16
18
20
22
24
26
28
30
33
36
39
42
45
48
51
J0 1
14 1
J1 1
22 1
J2 1
7 1
J3 1
15 1
J4 4
0 0
7 -1
8 1
15 -25
J5 4
1 0
8 -1
9 1
16 -25
J6 4
2 0
9 -1
10 1
17 -50
J7 4
3 0
10 -1
11 1
18 -50
J8 4
4 0
11 -1
12 1
19 -50
J9 4
5 0
12 -1
13 1
20 -90
J10 4
6 0
13 -1
14 1
21 -90
J11 3
0 0
15 -1
16 1
J12 3
1 0
16 -1
17 1
J13 3
2 0
17 -1
18 1
J14 3
3 0
18 -1
19 1
J15 3
4 0
19 -1
20 1
J16 3
5 0
20 -1
21 1
J17 3
6 0
21 -1
22 1
G0 7
0 0
1 0
2 0
3 0
4 0
5 0
6 0
